(set-logic BV) (define-fun origCir ((n284 Bool) (n261 Bool) (n253 Bool) (n170 Bool)) Bool (and n284 (xor n261 (and n253 n170)))) (synth-fun skel ((n284 Bool) (n261 Bool) (n253 Bool) (n170 Bool)) Bool) (declare-var n284 Bool) (declare-var n261 Bool) (declare-var n253 Bool) (declare-var n170 Bool) (constraint (= (origCir n284 n261 n253 n170) (skel n284 n261 n253 n170))) (check-synth)
